p edge 30 43 10
v 5 1 5 11 13 23
v 4 4 20 22 29
v 3 12 24 26
v 3 8 9 16
v 3 3 7 25
v 1 17
v 3 15 18 21
v 3 14 19 30
v 3 2 27 28
v 2 6 10
e 1 3
e 1 11
e 1 15
e 1 23
e 1 27
e 1 28
e 2 15
e 2 24
e 3 4
e 3 7
e 3 10
e 4 11
e 4 25
e 5 9
e 5 15
e 5 17
e 5 20
e 6 7
e 6 21
e 6 22
e 7 8
e 7 17
e 7 21
e 8 9
e 8 10
e 8 15
e 8 21
e 10 19
e 10 22
e 10 25
e 11 26
e 12 15
e 12 25
e 14 15
e 14 24
e 14 29
e 15 20
e 19 27
e 20 29
e 22 24
e 23 25
e 25 29
e 26 29
